************************************************************************
file with basedata            : mm12_.bas
initial value random generator: 1471179541
************************************************************************
projects                      :  1
jobs (incl. supersource/sink ):  12
horizon                       :  86
RESOURCES
  - renewable                 :  2   R
  - nonrenewable              :  2   N
  - doubly constrained        :  0   D
************************************************************************
PROJECT INFORMATION:
pronr.  #jobs rel.date duedate tardcost  MPM-Time
    1     10      0       17        0       17
************************************************************************
PRECEDENCE RELATIONS:
jobnr.    #modes  #successors   successors
   0        1          3           1   2   3
   1        3          1           9
   2        3          3           5   6   8
   3        3          3           4   6  10
   4        3          1           8
   5        3          2           7  10
   6        3          1           7
   7        3          1           9
   8        3          1          11
   9        3          1          11
  10        3          1          11
  11        1          0        
************************************************************************
REQUESTS/DURATIONS:
jobnr. mode duration  R 1  R 2  R 3  R 4  E(W 1)
------------------------------------------------------------------------
  0      1     0       0    0    0    0     0
  1      1     6       3    0    7    0    60
  2      1     5       0    4   10    0    70
  3      1     1       0    7    0    6    13
  4      1     3       0    8    0    3    33
  5      1     2       0    8    8    0    32
  6      1     9       3    0    0    9    108
  7      1     2       8    0   10    0    36
  8      1     2       0    6    0    8    28
  9      1     1       0    8    7    0    15
 10      1     6       0    4   10    0    84
 11      1     0       0    0    0    0     0
************************************************************************
RESOURCEAVAILABILITIES:
  R 1
   160
************************************************************************
RESOURCE LIMITS:
jobnr.  l(R 1)  u(R 1)
------------------------------------------------------------------------
  0        0       0
  1        6      10
  2        7      14
  3        7      13
  4        6      11
  5        8      16
  6        7      12
  7        9      18
  8        7      14
  9        8      15
 10        7      14
 11        0       0
************************************************************************
SCENARIOS:
------------------------------------------------------------------------
RESOURCE k = 1
s = 1: (0, 43, 90, 13, 32, 30, 107, 47, 36, 10, 137, 0)
s = 2: (0, 36, 90, 12, 37, 37, 123, 34, 21, 11, 87, 0)
s = 3: (0, 53, 58, 13, 36, 21, 92, 30, 28, 16, 122, 0)
s = 4: (0, 59, 67, 13, 38, 56, 152, 32, 25, 20, 77, 0)
s = 5: (0, 69, 95, 16, 32, 31, 112, 36, 31, 26, 75, 0)
s = 6: (0, 75, 102, 11, 21, 22, 112, 45, 43, 12, 77, 0)
s = 7: (0, 76, 89, 15, 29, 47, 92, 29, 25, 16, 93, 0)
s = 8: (0, 37, 75, 10, 60, 29, 67, 45, 18, 17, 54, 0)
s = 9: (0, 70, 104, 15, 43, 25, 130, 28, 23, 20, 58, 0)
s = 10: (0, 49, 59, 12, 37, 24, 120, 52, 37, 14, 59, 0)
s = 11: (0, 57, 98, 10, 43, 34, 94, 42, 28, 11, 50, 0)
s = 12: (0, 75, 66, 7, 35, 39, 91, 22, 25, 8, 92, 0)
s = 13: (0, 91, 47, 8, 23, 26, 82, 38, 27, 11, 101, 0)
s = 14: (0, 59, 69, 16, 44, 26, 85, 39, 35, 13, 54, 0)
s = 15: (0, 80, 74, 9, 51, 20, 148, 23, 30, 12, 87, 0)
s = 16: (0, 44, 108, 11, 50, 45, 74, 29, 38, 19, 66, 0)
s = 17: (0, 66, 129, 15, 23, 31, 186, 30, 29, 16, 73, 0)
s = 18: (0, 61, 56, 10, 44, 34, 92, 34, 36, 21, 69, 0)
s = 19: (0, 52, 84, 12, 40, 21, 137, 39, 26, 11, 125, 0)
s = 20: (0, 79, 48, 13, 26, 34, 77, 47, 32, 14, 57, 0)
s = 21: (0, 70, 82, 9, 38, 33, 113, 28, 29, 12, 79, 0)
s = 22: (0, 95, 54, 12, 33, 39, 109, 22, 25, 15, 70, 0)
s = 23: (0, 57, 67, 14, 45, 34, 127, 44, 29, 13, 79, 0)
s = 24: (0, 51, 60, 8, 37, 41, 66, 25, 22, 20, 87, 0)
s = 25: (0, 75, 98, 14, 49, 19, 83, 52, 38, 20, 52, 0)
s = 26: (0, 80, 69, 9, 39, 28, 113, 47, 21, 12, 109, 0)
s = 27: (0, 44, 89, 10, 48, 26, 62, 38, 30, 15, 66, 0)
s = 28: (0, 48, 58, 21, 36, 23, 129, 42, 20, 19, 61, 0)
s = 29: (0, 49, 63, 12, 24, 40, 87, 32, 25, 19, 100, 0)
s = 30: (0, 68, 87, 9, 25, 49, 120, 24, 25, 20, 65, 0)
s = 31: (0, 60, 73, 13, 51, 39, 73, 31, 25, 17, 86, 0)
s = 32: (0, 66, 55, 13, 20, 43, 119, 25, 28, 12, 60, 0)
s = 33: (0, 86, 71, 20, 37, 26, 167, 50, 27, 24, 83, 0)
s = 34: (0, 46, 50, 17, 23, 35, 66, 41, 41, 13, 149, 0)
s = 35: (0, 57, 61, 19, 22, 27, 204, 47, 31, 12, 94, 0)
s = 36: (0, 55, 102, 13, 36, 33, 117, 31, 28, 8, 98, 0)
s = 37: (0, 45, 104, 14, 23, 47, 110, 34, 18, 14, 70, 0)
s = 38: (0, 43, 67, 12, 48, 29, 110, 25, 17, 8, 54, 0)
s = 39: (0, 59, 68, 9, 35, 22, 62, 44, 16, 16, 81, 0)
s = 40: (0, 44, 63, 12, 33, 37, 63, 23, 26, 16, 78, 0)
s = 41: (0, 85, 58, 12, 32, 43, 77, 26, 25, 20, 80, 0)
s = 42: (0, 45, 76, 12, 26, 32, 77, 28, 36, 10, 54, 0)
s = 43: (0, 45, 45, 11, 23, 40, 65, 21, 32, 12, 124, 0)
s = 44: (0, 77, 71, 10, 33, 42, 192, 49, 27, 10, 68, 0)
s = 45: (0, 66, 57, 22, 38, 29, 131, 37, 22, 11, 99, 0)
s = 46: (0, 58, 53, 13, 20, 27, 155, 56, 20, 13, 53, 0)
s = 47: (0, 86, 83, 15, 49, 46, 108, 43, 34, 13, 96, 0)
s = 48: (0, 41, 66, 10, 25, 31, 88, 42, 21, 17, 77, 0)
s = 49: (0, 54, 76, 20, 42, 37, 100, 39, 16, 14, 109, 0)
s = 50: (0, 47, 86, 14, 24, 37, 68, 52, 40, 12, 85, 0)
s = 51: (0, 75, 83, 9, 53, 36, 135, 29, 23, 16, 50, 0)
s = 52: (0, 46, 71, 13, 36, 36, 62, 38, 32, 13, 59, 0)
s = 53: (0, 62, 76, 15, 45, 30, 96, 53, 53, 18, 75, 0)
s = 54: (0, 82, 80, 15, 19, 25, 98, 30, 21, 11, 47, 0)
s = 55: (0, 41, 97, 16, 33, 46, 96, 27, 27, 21, 84, 0)
s = 56: (0, 45, 56, 15, 42, 47, 58, 31, 35, 16, 89, 0)
s = 57: (0, 71, 57, 12, 24, 31, 111, 33, 19, 18, 119, 0)
s = 58: (0, 51, 102, 13, 32, 25, 167, 26, 48, 17, 87, 0)
s = 59: (0, 62, 70, 10, 48, 36, 94, 32, 19, 11, 107, 0)
s = 60: (0, 105, 54, 12, 29, 45, 118, 23, 25, 21, 107, 0)
s = 61: (0, 75, 63, 11, 42, 40, 104, 30, 33, 11, 89, 0)
s = 62: (0, 63, 71, 15, 36, 23, 147, 48, 51, 16, 138, 0)
s = 63: (0, 75, 76, 14, 35, 39, 122, 21, 23, 19, 48, 0)
s = 64: (0, 59, 71, 18, 49, 21, 101, 42, 20, 9, 68, 0)
s = 65: (0, 71, 55, 14, 20, 31, 126, 40, 21, 21, 114, 0)
s = 66: (0, 43, 67, 21, 45, 35, 121, 51, 45, 20, 77, 0)
s = 67: (0, 86, 49, 17, 40, 21, 66, 38, 28, 16, 87, 0)
s = 68: (0, 55, 58, 23, 25, 37, 121, 53, 17, 9, 75, 0)
s = 69: (0, 39, 74, 21, 28, 33, 75, 34, 20, 19, 117, 0)
s = 70: (0, 67, 86, 11, 22, 35, 90, 44, 26, 14, 102, 0)
s = 71: (0, 41, 41, 15, 35, 46, 115, 32, 18, 11, 66, 0)
s = 72: (0, 56, 85, 17, 27, 30, 89, 20, 30, 16, 127, 0)
s = 73: (0, 53, 82, 16, 37, 31, 119, 25, 34, 10, 106, 0)
s = 74: (0, 38, 76, 26, 27, 19, 96, 32, 36, 15, 85, 0)
s = 75: (0, 74, 58, 12, 48, 31, 73, 32, 23, 11, 82, 0)
s = 76: (0, 73, 89, 18, 40, 17, 151, 35, 17, 10, 143, 0)
s = 77: (0, 48, 89, 9, 25, 36, 75, 35, 25, 17, 62, 0)
s = 78: (0, 50, 56, 16, 21, 26, 91, 26, 23, 11, 46, 0)
s = 79: (0, 49, 41, 15, 23, 56, 78, 43, 33, 25, 59, 0)
s = 80: (0, 35, 106, 12, 23, 48, 108, 58, 19, 10, 71, 0)
s = 81: (0, 88, 78, 14, 19, 40, 108, 20, 27, 17, 83, 0)
s = 82: (0, 68, 42, 18, 23, 23, 95, 62, 25, 21, 121, 0)
s = 83: (0, 47, 55, 17, 43, 53, 118, 34, 31, 24, 90, 0)
s = 84: (0, 49, 59, 13, 44, 46, 98, 39, 33, 12, 137, 0)
s = 85: (0, 49, 71, 12, 26, 27, 107, 20, 29, 12, 63, 0)
s = 86: (0, 44, 43, 9, 32, 22, 190, 43, 32, 20, 57, 0)
s = 87: (0, 45, 61, 16, 31, 27, 92, 29, 40, 11, 109, 0)
s = 88: (0, 45, 85, 22, 27, 25, 157, 40, 22, 22, 108, 0)
s = 89: (0, 42, 79, 10, 30, 28, 72, 54, 21, 10, 89, 0)
s = 90: (0, 37, 96, 12, 53, 57, 163, 27, 17, 12, 50, 0)
s = 91: (0, 56, 86, 10, 55, 24, 76, 22, 33, 9, 88, 0)
s = 92: (0, 35, 86, 8, 28, 37, 98, 52, 22, 11, 110, 0)
s = 93: (0, 50, 73, 11, 53, 31, 76, 24, 35, 12, 100, 0)
s = 94: (0, 68, 87, 11, 17, 41, 128, 34, 15, 15, 75, 0)
s = 95: (0, 54, 56, 8, 29, 45, 138, 39, 36, 9, 105, 0)
s = 96: (0, 65, 107, 20, 22, 42, 164, 47, 23, 11, 65, 0)
s = 97: (0, 35, 84, 11, 35, 42, 150, 38, 29, 18, 64, 0)
s = 98: (0, 73, 79, 11, 27, 37, 85, 40, 20, 16, 109, 0)
s = 99: (0, 60, 63, 18, 54, 40, 61, 25, 33, 11, 66, 0)
s = 100: (0, 52, 67, 7, 33, 46, 127, 25, 43, 17, 50, 0)
s = 101: (0, 56, 79, 12, 22, 21, 152, 33, 29, 13, 104, 0)
s = 102: (0, 79, 55, 12, 35, 31, 136, 36, 22, 11, 110, 0)
s = 103: (0, 47, 65, 10, 47, 38, 63, 48, 22, 11, 114, 0)
s = 104: (0, 92, 53, 13, 40, 39, 97, 47, 22, 14, 55, 0)
s = 105: (0, 66, 71, 11, 40, 42, 87, 29, 33, 14, 114, 0)
s = 106: (0, 37, 39, 17, 46, 31, 75, 58, 32, 15, 73, 0)
s = 107: (0, 73, 42, 18, 33, 51, 120, 29, 32, 12, 98, 0)
s = 108: (0, 60, 93, 12, 32, 26, 119, 53, 33, 19, 69, 0)
s = 109: (0, 62, 58, 12, 58, 41, 79, 32, 18, 12, 74, 0)
s = 110: (0, 61, 68, 15, 29, 34, 123, 35, 34, 16, 128, 0)
s = 111: (0, 68, 73, 23, 37, 44, 106, 37, 36, 16, 91, 0)
s = 112: (0, 62, 72, 17, 33, 30, 79, 38, 19, 17, 168, 0)
s = 113: (0, 69, 76, 15, 24, 40, 63, 39, 23, 11, 81, 0)
s = 114: (0, 86, 65, 16, 31, 27, 123, 47, 30, 11, 113, 0)
s = 115: (0, 74, 65, 11, 30, 41, 92, 28, 18, 11, 98, 0)
s = 116: (0, 46, 55, 11, 21, 21, 78, 27, 22, 13, 62, 0)
s = 117: (0, 46, 63, 13, 45, 29, 70, 54, 29, 12, 102, 0)
s = 118: (0, 41, 91, 19, 29, 41, 81, 25, 31, 15, 57, 0)
s = 119: (0, 52, 90, 13, 31, 33, 124, 46, 38, 16, 103, 0)
s = 120: (0, 47, 88, 13, 27, 44, 112, 47, 39, 13, 116, 0)
s = 121: (0, 51, 44, 21, 27, 26, 105, 22, 31, 11, 117, 0)
s = 122: (0, 58, 82, 18, 28, 27, 89, 28, 31, 18, 93, 0)
s = 123: (0, 48, 85, 10, 27, 38, 142, 31, 39, 21, 73, 0)
s = 124: (0, 51, 52, 11, 41, 40, 71, 24, 33, 12, 135, 0)
s = 125: (0, 73, 54, 13, 47, 32, 79, 44, 23, 10, 88, 0)
s = 126: (0, 102, 71, 9, 27, 26, 141, 24, 30, 9, 113, 0)
s = 127: (0, 47, 47, 13, 32, 50, 61, 22, 24, 10, 53, 0)
s = 128: (0, 66, 57, 10, 26, 42, 127, 31, 27, 23, 71, 0)
s = 129: (0, 41, 58, 16, 49, 42, 96, 48, 21, 14, 75, 0)
s = 130: (0, 41, 73, 9, 34, 31, 78, 28, 50, 14, 97, 0)
s = 131: (0, 71, 44, 8, 32, 35, 136, 37, 31, 18, 106, 0)
s = 132: (0, 62, 56, 14, 32, 33, 68, 28, 24, 10, 111, 0)
s = 133: (0, 37, 58, 18, 29, 34, 117, 22, 25, 11, 87, 0)
s = 134: (0, 46, 70, 19, 40, 35, 114, 31, 27, 25, 75, 0)
s = 135: (0, 66, 57, 16, 27, 28, 103, 28, 40, 17, 79, 0)
s = 136: (0, 77, 49, 11, 48, 37, 148, 39, 20, 19, 62, 0)
s = 137: (0, 35, 54, 10, 38, 22, 153, 35, 36, 12, 87, 0)
s = 138: (0, 46, 125, 10, 20, 41, 132, 29, 27, 15, 93, 0)
s = 139: (0, 66, 82, 12, 37, 49, 104, 54, 30, 18, 72, 0)
s = 140: (0, 83, 78, 9, 23, 44, 138, 33, 29, 17, 109, 0)
s = 141: (0, 88, 66, 13, 29, 59, 89, 24, 30, 19, 135, 0)
s = 142: (0, 62, 52, 16, 27, 43, 123, 26, 48, 15, 45, 0)
s = 143: (0, 34, 84, 14, 40, 23, 80, 40, 24, 11, 95, 0)
s = 144: (0, 65, 61, 14, 42, 43, 130, 39, 30, 13, 68, 0)
s = 145: (0, 51, 54, 8, 39, 32, 99, 28, 20, 17, 85, 0)
s = 146: (0, 74, 38, 9, 28, 34, 136, 51, 33, 19, 99, 0)
s = 147: (0, 55, 53, 13, 40, 33, 99, 57, 29, 13, 88, 0)
s = 148: (0, 50, 80, 13, 49, 21, 94, 33, 25, 10, 51, 0)
s = 149: (0, 47, 55, 19, 22, 29, 104, 27, 29, 9, 80, 0)
s = 150: (0, 94, 102, 12, 57, 32, 81, 23, 34, 9, 70, 0)
s = 151: (0, 94, 54, 15, 38, 28, 93, 25, 40, 17, 62, 0)
s = 152: (0, 56, 39, 16, 25, 33, 76, 52, 43, 15, 117, 0)
s = 153: (0, 38, 61, 10, 38, 22, 125, 29, 21, 20, 96, 0)
s = 154: (0, 50, 43, 13, 22, 26, 156, 32, 16, 12, 61, 0)
s = 155: (0, 37, 69, 12, 31, 44, 148, 21, 17, 15, 60, 0)
s = 156: (0, 41, 85, 12, 28, 24, 121, 50, 21, 17, 81, 0)
s = 157: (0, 47, 48, 14, 23, 42, 99, 29, 37, 12, 60, 0)
s = 158: (0, 52, 83, 14, 39, 20, 127, 41, 36, 19, 76, 0)
s = 159: (0, 60, 115, 8, 39, 45, 110, 54, 29, 14, 62, 0)
s = 160: (0, 69, 83, 13, 19, 55, 142, 33, 29, 24, 97, 0)
s = 161: (0, 62, 62, 18, 32, 25, 126, 40, 34, 20, 122, 0)
s = 162: (0, 53, 86, 11, 31, 45, 85, 65, 29, 17, 102, 0)
s = 163: (0, 81, 54, 12, 34, 42, 147, 36, 39, 14, 107, 0)
s = 164: (0, 52, 50, 12, 42, 36, 64, 41, 40, 19, 117, 0)
s = 165: (0, 34, 70, 18, 39, 23, 92, 35, 41, 31, 62, 0)
s = 166: (0, 51, 91, 17, 23, 35, 122, 24, 40, 12, 94, 0)
s = 167: (0, 34, 86, 8, 28, 33, 102, 24, 41, 9, 91, 0)
s = 168: (0, 53, 79, 12, 33, 45, 118, 37, 39, 13, 88, 0)
s = 169: (0, 33, 78, 14, 52, 63, 143, 51, 33, 18, 48, 0)
s = 170: (0, 63, 76, 10, 22, 33, 133, 43, 38, 18, 97, 0)
s = 171: (0, 88, 94, 13, 18, 44, 119, 34, 19, 22, 73, 0)
s = 172: (0, 40, 90, 12, 42, 29, 113, 48, 23, 18, 90, 0)
s = 173: (0, 83, 55, 14, 31, 32, 58, 25, 25, 20, 62, 0)
s = 174: (0, 70, 62, 17, 47, 30, 148, 46, 30, 13, 92, 0)
s = 175: (0, 53, 43, 9, 25, 26, 96, 24, 47, 13, 58, 0)
s = 176: (0, 48, 52, 15, 32, 20, 110, 45, 40, 17, 86, 0)
s = 177: (0, 80, 68, 13, 25, 21, 81, 29, 32, 15, 99, 0)
s = 178: (0, 61, 67, 9, 21, 21, 117, 28, 29, 12, 93, 0)
s = 179: (0, 50, 78, 19, 26, 51, 78, 46, 26, 9, 69, 0)
s = 180: (0, 69, 93, 15, 47, 39, 76, 45, 28, 13, 78, 0)
s = 181: (0, 74, 59, 11, 45, 29, 152, 29, 32, 15, 79, 0)
s = 182: (0, 59, 91, 15, 41, 29, 113, 45, 26, 11, 57, 0)
s = 183: (0, 69, 58, 10, 32, 22, 131, 25, 21, 17, 70, 0)
s = 184: (0, 43, 79, 11, 25, 19, 104, 50, 48, 17, 110, 0)
s = 185: (0, 47, 75, 26, 36, 28, 97, 56, 31, 19, 83, 0)
s = 186: (0, 42, 74, 12, 34, 29, 85, 26, 22, 10, 59, 0)
s = 187: (0, 42, 75, 11, 32, 34, 117, 40, 17, 19, 77, 0)
s = 188: (0, 54, 64, 11, 52, 27, 121, 36, 28, 16, 94, 0)
s = 189: (0, 67, 64, 14, 25, 46, 91, 27, 31, 16, 129, 0)
s = 190: (0, 42, 80, 7, 54, 35, 133, 21, 25, 16, 74, 0)
s = 191: (0, 80, 74, 15, 32, 32, 166, 60, 19, 10, 152, 0)
s = 192: (0, 47, 40, 18, 55, 26, 68, 25, 21, 19, 66, 0)
s = 193: (0, 39, 54, 9, 36, 23, 128, 24, 29, 15, 113, 0)
s = 194: (0, 37, 121, 19, 30, 23, 94, 27, 21, 14, 56, 0)
s = 195: (0, 77, 63, 11, 26, 43, 80, 23, 35, 11, 167, 0)
s = 196: (0, 43, 48, 16, 40, 35, 94, 32, 24, 11, 83, 0)
s = 197: (0, 42, 40, 15, 23, 32, 120, 34, 18, 11, 89, 0)
s = 198: (0, 76, 89, 16, 37, 49, 110, 51, 26, 21, 82, 0)
s = 199: (0, 80, 57, 13, 31, 21, 155, 30, 42, 13, 95, 0)
s = 200: (0, 63, 62, 17, 32, 46, 182, 29, 41, 19, 76, 0)
************************************************************************
ES/LS-VALUES:
jobnr.   ES(i)    LS(i)
------------------------------------------------------------------------
  0        0        0
  1        0       72
  2        0       52
  3        0       60
  4        2       76
  5        9       70
  6        9       62
  7       26       79
  8        9       82
  9       29       83
 10       12       74
 11       31       86
************************************************************************
BIG-M-VALUES:
M1 = 30, M2 = 204
************************************************************************
